12 40 6 10
1 1 16 4 3 4 13 20 20 1 10 9 3 8 7 2 18 19 7 15 16 14 10 7 12 14 7 18 10 9 3 18 9 10 15 16 1 16 8 1 
8.69 11.59 6.9 10.99 9.98 9.37 7.08 6.55 0.85 3.17 3.4 11.24 2.55 6.05 8.91 2.56 5.14 12.19 5.28 12.26 11.39 3.86 5.06 14.57 13.45 13.21 13.45 6.47 13.47 8.16 10.55 10.24 6.7 5.75 15.28 14.16 5.39 9.39 4.9 4.81 
11.22 3.12 10.95 11.56 5.55 15.69 2.48 4.06 5.16 14.27 12.11 3.27 3.3 11.41 1.48 13.8 0.22 1.09 2.87 10.72 1.87 12.99 10.57 13.22 5.13 12.13 2.78 4.91 4.82 5.49 4.47 3.46 11.13 12.36 5.43 8.01 7.38 1.26 15.08 4.1 
15 1.86 1.25 1.61 9.89 0.21 8.43 8.99 5.7 5.32 3.46 5.27 10.41 8.11 0.97 13.38 8.91 14.76 7.92 7.9 14.66 11.56 2.95 15.59 0.93 6.47 1.32 2.24 0.79 4.86 8.6 15.88 2.7 2.28 2.29 13.29 14.4 8.04 7.69 6.83 
5.03 6.42 2.95 10.33 15.58 7.3 8.99 9.8 8.66 5.8 1.3 13.3 12.13 13.19 10.85 7.69 13.45 3.39 3.95 5.48 14.6 7.16 1.22 0.34 9.14 4.32 3.51 15.81 12.02 0.95 10.01 9.06 0.46 8.35 0.14 13.2 12 10.66 0.89 2.8 
4.47 11.97 2.47 2.24 7.61 7.19 9.11 0.86 14.85 5.31 15.64 6.58 12.88 2.21 14.21 11.82 0.36 2.68 9.06 1.13 6.44 0.34 2.25 10.88 14.17 4.64 12.1 5.73 4.68 12.68 0.22 8.91 10.73 7.05 15.68 4.2 9.99 14.07 8.77 3.23 
14.24 1.31 0.62 9.23 8.18 0.16 11.32 5.14 10.22 10.92 2.74 11.06 12.18 9.78 2.46 3.92 15.5 3.47 3.42 15.77 10.21 10 2.05 4.7 5.64 4.49 12.49 6.94 9.37 7.94 9.41 10.5 6.12 6.71 12.76 11.6 0.91 2.54 9.77 15.61 
8 8 8 8 8 8 8 8 8 8 8 8 8 8 8 8 8 8 8 8 8 8 8 8 8 8 8 8 8 8 8 8 8 8 8 8 8 8 8 8 
12.52 0.93 11.71 14.32 4.76 0.83 10 13.77 6.07 12.51 7.59 14.65 13.65 4.73 3.93 7.46 6.77 4.66 7.2 13.26 4.11 11.58 2.08 13.05 14.29 12.82 15.45 8.4 10.31 12.24 11.97 14.11 5.43 6.58 4.47 0.33 8.48 13.88 15.42 12.46 
1.36 8.98 14.46 2.21 14.5 14.9 3.77 1.04 5.08 0.76 11.02 1.06 5.68 7.14 0.13 9.08 3.67 7.22 10.87 10.61 5.06 5.73 4.61 14.09 9.83 13.58 8.13 2.47 13.81 9.39 12.71 8.45 8.27 3.91 14.16 3.22 14.93 15.72 5.13 0.87 
13.47 5.21 11.35 6.79 10.89 3.22 1.23 0.96 6.5 11.32 2.68 1.08 9.08 10.59 1.97 10.67 15.51 13.89 4.34 9.33 13.92 14.17 15.06 0.23 9.52 15.29 5.29 0.11 5.02 2.69 6.31 14.32 5.61 7.65 4.96 0.24 11.39 0.91 7.71 13.5 
13.71 10.98 3.29 2.82 5.91 4.19 11.58 4.15 9.09 5.51 7.66 10.19 15.41 6.56 11.19 9.2 13.01 10.28 0.34 7.32 9.68 12.04 8.85 2.12 7.54 11.16 5.27 13.81 3.29 5.91 13.64 7.54 13.44 13.69 5.22 15.22 14.01 1.41 7 10.26 
5.41 0.1 9.13 15.67 15.79 8.34 13.69 10.09 12.35 7.48 14.18 11.16 6.93 12.07 8.6 1.98 13.8 12.06 14.57 9.36 3.84 7.37 7.04 9.66 1.87 6.84 9.94 9.83 9.88 2.11 12.24 3.23 8.84 12.39 13.28 2.89 11.02 14.92 7.47 10.35 
1 1 1 1 1 1 1 1 1 1 1 1 1 1 1 1 1 1 1 1 1 1 1 1 1 1 1 1 1 1 1 1 1 1 1 1 1 1 1 1 
1 1 1 1 1 1 1 1 1 1 1 1 1 1 1 1 1 1 1 1 1 1 1 1 1 1 1 1 1 1 1 1 1 1 1 1 1 1 1 1 
1 1 1 1 1 1 1 1 1 1 1 1 1 1 1 1 1 1 1 1 1 1 1 1 1 1 1 1 1 1 1 1 1 1 1 1 1 1 1 1 
1 1 1 1 1 1 1 1 1 1 1 1 1 1 1 1 1 1 1 1 1 1 1 1 1 1 1 1 1 1 1 1 1 1 1 1 1 1 1 1 
1 1 1 1 1 1 1 1 1 1 1 1 1 1 1 1 1 1 1 1 1 1 1 1 1 1 1 1 1 1 1 1 1 1 1 1 1 1 1 1 
1 1 1 1 1 1 1 1 1 1 1 1 1 1 1 1 1 1 1 1 1 1 1 1 1 1 1 1 1 1 1 1 1 1 1 1 1 1 1 1 
1 1 1 1 1 1 1 1 1 1 1 1 1 1 1 1 1 1 1 1 1 1 1 1 1 1 1 1 1 1 1 1 1 1 1 1 1 1 1 1 
1 1 1 1 1 1 1 1 1 1 1 1 1 1 1 1 1 1 1 1 1 1 1 1 1 1 1 1 1 1 1 1 1 1 1 1 1 1 1 1 
1 1 1 1 1 1 1 1 1 1 1 1 1 1 1 1 1 1 1 1 1 1 1 1 1 1 1 1 1 1 1 1 1 1 1 1 1 1 1 1 
1 1 1 1 1 1 1 1 1 1 1 1 1 1 1 1 1 1 1 1 1 1 1 1 1 1 1 1 1 1 1 1 1 1 1 1 1 1 1 1 
1 1 1 1 1 1 1 1 1 1 1 1 1 1 1 1 1 1 1 1 1 1 1 1 1 1 1 1 1 1 1 1 1 1 1 1 1 1 1 1 
1 1 1 1 1 1 1 1 1 1 1 1 1 1 1 1 1 1 1 1 1 1 1 1 1 1 1 1 1 1 1 1 1 1 1 1 1 1 1 1 
0.01 0.01 0.01 0.01 0.01 0.01 0.01 0.01 0.01 0.01 0.01 0.01 0.01 0.01 0.01 0.01 0.01 0.01 0.01 0.01 0.01 0.01 0.01 0.01 0.01 0.01 0.01 0.01 0.01 0.01 0.01 0.01 0.01 0.01 0.01 0.01 0.01 0.01 0.01 0.01 
0.02 0.02 0.02 0.02 0.02 0.02 0.02 0.02 0.02 0.02 0.02 0.02 0.02 0.02 0.02 0.02 0.02 0.02 0.02 0.02 0.02 0.02 0.02 0.02 0.02 0.02 0.02 0.02 0.02 0.02 0.02 0.02 0.02 0.02 0.02 0.02 0.02 0.02 0.02 0.02 
0.03 0.03 0.03 0.03 0.03 0.03 0.03 0.03 0.03 0.03 0.03 0.03 0.03 0.03 0.03 0.03 0.03 0.03 0.03 0.03 0.03 0.03 0.03 0.03 0.03 0.03 0.03 0.03 0.03 0.03 0.03 0.03 0.03 0.03 0.03 0.03 0.03 0.03 0.03 0.03 
0.04 0.04 0.04 0.04 0.04 0.04 0.04 0.04 0.04 0.04 0.04 0.04 0.04 0.04 0.04 0.04 0.04 0.04 0.04 0.04 0.04 0.04 0.04 0.04 0.04 0.04 0.04 0.04 0.04 0.04 0.04 0.04 0.04 0.04 0.04 0.04 0.04 0.04 0.04 0.04 
0.05 0.05 0.05 0.05 0.05 0.05 0.05 0.05 0.05 0.05 0.05 0.05 0.05 0.05 0.05 0.05 0.05 0.05 0.05 0.05 0.05 0.05 0.05 0.05 0.05 0.05 0.05 0.05 0.05 0.05 0.05 0.05 0.05 0.05 0.05 0.05 0.05 0.05 0.05 0.05 
0.06 0.06 0.06 0.06 0.06 0.06 0.06 0.06 0.06 0.06 0.06 0.06 0.06 0.06 0.06 0.06 0.06 0.06 0.06 0.06 0.06 0.06 0.06 0.06 0.06 0.06 0.06 0.06 0.06 0.06 0.06 0.06 0.06 0.06 0.06 0.06 0.06 0.06 0.06 0.06 
0.07 0.07 0.07 0.07 0.07 0.07 0.07 0.07 0.07 0.07 0.07 0.07 0.07 0.07 0.07 0.07 0.07 0.07 0.07 0.07 0.07 0.07 0.07 0.07 0.07 0.07 0.07 0.07 0.07 0.07 0.07 0.07 0.07 0.07 0.07 0.07 0.07 0.07 0.07 0.07 
0.2 0.2 0.2 0.2 0.2 0.2 0.2 0.2 0.2 0.2 0.2 0.2 0.2 0.2 0.2 0.2 0.2 0.2 0.2 0.2 0.2 0.2 0.2 0.2 0.2 0.2 0.2 0.2 0.2 0.2 0.2 0.2 0.2 0.2 0.2 0.2 0.2 0.2 0.2 0.2 
0.4 0.4 0.4 0.4 0.4 0.4 0.4 0.4 0.4 0.4 0.4 0.4 0.4 0.4 0.4 0.4 0.4 0.4 0.4 0.4 0.4 0.4 0.4 0.4 0.4 0.4 0.4 0.4 0.4 0.4 0.4 0.4 0.4 0.4 0.4 0.4 0.4 0.4 0.4 0.4 
0.6 0.6 0.6 0.6 0.6 0.6 0.6 0.6 0.6 0.6 0.6 0.6 0.6 0.6 0.6 0.6 0.6 0.6 0.6 0.6 0.6 0.6 0.6 0.6 0.6 0.6 0.6 0.6 0.6 0.6 0.6 0.6 0.6 0.6 0.6 0.6 0.6 0.6 0.6 0.6 
0.8 0.8 0.8 0.8 0.8 0.8 0.8 0.8 0.8 0.8 0.8 0.8 0.8 0.8 0.8 0.8 0.8 0.8 0.8 0.8 0.8 0.8 0.8 0.8 0.8 0.8 0.8 0.8 0.8 0.8 0.8 0.8 0.8 0.8 0.8 0.8 0.8 0.8 0.8 0.8 
1 1 1 1 1 1 1 1 1 1 1 1 1 1 1 1 1 1 1 1 1 1 1 1 1 1 1 1 1 1 1 1 1 1 1 1 1 1 1 1 
